; benchmark generated from python API
(set-info :status unknown)
(declare-datatypes ((RealState 0)) (((RMk1 (rval1 Real)) (RMk2 (rval2 Real)))))
 (declare-fun x1 () Real)
(assert
 (let (($x13010 (exists ((?y1_st RealState) (val!213 Real) )(let (($x11567 (exists ((?y2 Real) )(! (let ((?x11816 (- 80.0)))
 (>= (+ (+ (* 71.0 ?y2) (* 43.0 (rval2 ?y1_st))) (* (- 22.0) x1)) ?x11816)) :qid k!17))
 ))
 (let (($x12464 (exists ((?y2 Real) )(! (not (= (+ (* 34.0 ?y2) (* 63.0 x1)) 12.0)) :qid k!17))
 ))
 (let (($x10703 (not (= ?y1_st (RMk1 val!213)))))
 (and $x10703 (or $x12464 $x11567))))))
 ))
 (let (($x1995 (exists ((?y1_st RealState) (val!211 Real) )(exists ((?y2_st RealState) (val!212 Real) )(let ((?x5331 (- 39.0)))
 (let ((?x6061 (* (- 97.0) x1)))
 (let (($x3136 (= (+ (+ (* 1.0 (rval2 ?y2_st)) (* 17.0 (rval2 ?y1_st))) ?x6061) ?x5331)))
 (let (($x7533 (>= (* (- 21.0) x1) 70.0)))
 (let (($x10703 (not (= ?y2_st (RMk1 val!212)))))
 (let (($x3238 (not (= ?y1_st (RMk1 val!211)))))
 (and $x3238 $x10703 (or $x7533 (not $x3136))))))))))
 )
 ))
 (let (($x2587 (exists ((?y2_st RealState) (val!209 Real) )(exists ((?y3_st RealState) (val!210 Real) )(let ((?x144 (* 20.0 x1)))
 (let (($x7570 (= (+ (+ (* 42.0 (rval2 ?y3_st)) (* 68.0 (rval2 ?y2_st))) ?x144) 45.0)))
 (let (($x10703 (not (= ?y3_st (RMk1 val!210)))))
 (let (($x3238 (not (= ?y2_st (RMk1 val!209)))))
 (and $x3238 $x10703 $x7570))))))
 )
 ))
 (let (($x10402 (forall ((?y2 Real) )(<= (+ (* (- 7.0) ?y2) (* 57.0 x1)) 45.0))
 ))
 (let (($x11287 (or (<= (* 42.0 x1) 0.0) (>= (* (- 46.0) x1) 0.0))))
 (let (($x4074 (exists ((?y1_st RealState) (val!208 Real) )(forall ((?y2 Real) )(forall ((?y3 Real) )(let (($x11832 (< (+ (+ (* 48.0 ?y3) (* 49.0 ?y2)) (* (- 11.0) (rval2 ?y1_st))) 0.0)))
 (let ((?x8166 (- 36.0)))
 (let (($x6125 (= (+ (+ (* (- 28.0) ?y3) (* 6.0 ?y2)) (* 6.0 (rval2 ?y1_st))) ?x8166)))
 (let (($x10895 (< (* 69.0 ?y2) 4.0)))
 (let (($x3238 (not (= ?y1_st (RMk1 val!208)))))
 (and $x3238 (or $x10895 (or (not $x6125) $x11832)))))))))
 )
 )
 ))
 (or $x4074 (or (and (or $x11287 $x10402) $x2587) (and $x1995 $x13010))))))))))
(check-sat)
